c	Created in graph generator tool by Shahar Bardugo & Dorin Matzrafi
c
p	sp 20 10
c	graph contains 20 nodes and 10 arcs
c
a	20	14	0
a	2	4	0
a	8	1	0
a	6	7	0
a	4	9	0
a	7	11	0
a	16	3	0
a	11	8	0
a	14	11	0
a	20	9	0
